INDET
WARNING: for repeatability, setting FPU to use double precision
============================[ Problem Statistics ]=============================
|                                                                             |
|  Number of variables:         17850                                         |
|  Number of clauses:          149132                                         |
|  Parse time:                   0.05 s                                       |
|  Eliminated clauses:           0.00 Mb                                      |
|  Simplification time:          0.09 s                                       |
|                                                                             |
============================[ Search Statistics ]==============================
| Conflicts |          ORIGINAL         |          LEARNT          | Progress |
|           |    Vars  Clauses Literals |    Limit  Clauses Lit/Cl |          |
===============================================================================
|       100 |   17741   149118   498088 |    54676      100     21 |  0.000 % |
|       250 |   17741   149118   498088 |    60144      250     16 |  0.000 % |
|       475 |   17741   149118   498088 |    66158      475     18 |  0.000 % |
|       812 |   17741   149118   498088 |    72774      812     16 |  0.000 % |
|      1318 |   17741   149118   498088 |    80052     1318     15 |  0.000 % |
|      2077 |   17741   149118   498088 |    88057     2077     14 |  0.000 % |
|      3216 |   17741   149118   498088 |    96862     3216     14 |  0.000 % |
|      4924 |   17741   149118   498088 |   106549     4924     13 |  0.000 % |
|      7486 |   17741   149118   498088 |   117204     7486     14 |  0.000 % |
|     11330 |   17741   149118   498088 |   128924    11330     15 |  0.000 % |
|     17096 |   17741   149118   498088 |   141817    17096     15 |  0.000 % |
|     25745 |   17741   149118   498088 |   155998    25745     15 |  0.000 % |
|     38719 |   17741   149118   498088 |   171598    38719     15 |  0.000 % |
|     58180 |   17741   149118   498088 |   188758    58180     15 |  0.000 % |
|     87372 |   17741   149118   498088 |   207634    87372     15 |  0.000 % |
|    131161 |   17741   149118   498088 |   228397   131161     15 |  0.000 % |
|    196845 |   17741   149118   498088 |   251237   196845     15 |  0.000 % |
|    295371 |   17741   149118   498088 |   276361    58851     15 |  0.000 % |
|    443160 |   17741   149118   498088 |   303997   206640     15 |  0.000 % |
|    664843 |   17741   149118   498088 |   334397   140001     15 |  0.000 % |
|    997368 |   17741   149118   498088 |   367836   155738     16 |  0.000 % |
|   1496156 |   17741   149118   498088 |   404620   302641     16 |  0.000 % |
|   2244338 |   17740   149070   497954 |   445082   260165     18 |  0.006 % |
|   3366612 |   17740   149070   497954 |   489590   105022     16 |  0.006 % |
|   5050023 |   17740   149070   497954 |   538549   373101     20 |  0.006 % |
|   7575139 |   17732   148695   497001 |   592404   151847     18 |  0.051 % |
===============================================================================
restarts              : 16382
conflicts             : 10280482       (5465 /sec)
decisions             : 12490782       (0.00 % random) (6641 /sec)
propagations          : 4871278458     (2589733 /sec)
conflict literals     : 179878780      (46.68 % deleted)
Memory used           : 202.65 MB
CPU time              : 1881 s

INDETERMINATE
Timeout de 5 minute atins pentru fisierul downloaded_files/scheduling/scheduling_29.cnf
===================
Rulez minisat pentru fisierul downloaded_files/scheduling/scheduling_29.cnf...
./run_fam.sh: line 34: cpu-mit: command not found
===================
